64 64
23 17
18 28
21 35
11 64
7 18
19 11
17 23
5 46
2 57
15 15
1 10
7 4
3 1
14 22
13 2
9 31
29 37
17 56
16 61
15 42
25 26
6 9
29 51
22 49
13 58
3 36
19 60
25 53
1 54
23 33
14 30
4 47
10 55
11 19
30 63
18 20
20 14
24 3
16 44
10 45
22 12
4 29
6 6
31 43
8 8
12 59
28 24
24 16
2 48
30 50
27 7
8 25
26 13
9 41
26 52
28 38
5 40
32 39
27 32
32 21
12 34
21 62
31 5
20 27
